container_length = 45;
container_width = 30;
container_height =  16;
n = 7;
boxes = [|4, 3, 2, 16
         |4, 2, 2, 23
         |3, 3, 2, 17
         |5, 5, 2, 9
         |8, 4, 2, 8
         |6, 2, 2, 17
         |9, 2, 2, 10|];
